0 40 
1 44 
2 43 
3 44 
4 43 
5 44 
6 42 
7 39 
8 35 
9 35 
10 34 
11 31 
12 30 
13 28 
14 28 
15 29 
16 28 
17 27 
18 28 
19 25 
20 22 
21 18 
22 13 
23 11 
24 8 
25 9 
26 7 
27 4 
28 3 
29 2 
30 1 
31 0 
32 0 

